n = 15;
lu = [|80, 128
      |5, 9
      |-48, 224
      |-159, -95
      |-108, -78
      |-177, -105
      |-85, -79
      |-135, 31
      |-194, -134
      |-50, 19
      |105, 137
      |-181, -39
      |103, 115
      |-47, 71
      |-91, 187|];
